% File represents an instance of a Composite Structure problem to be solved by a CP framework
% Created on 2025-03-26 10:41:23.028
T = 50;
n = 16;
m = 24;
edges = [(2, 1),
(6, 5),
(10, 9),
(14, 13),
(2, 3),
(6, 7),
(10, 11),
(15, 14),
(4, 3),
(8, 7),
(12, 11),
(16, 15),
(1, 5),
(5, 9),
(9, 13),
(2, 6),
(6, 10),
(10, 14),
(3, 7),
(7, 11),
(11, 15),
(4, 8),
(8, 12),
(12, 16)];
counts = [|12, 14, 12, 6,
|12, 20, 12, 6,
|12, 16, 12, 6,
|12, 16, 12, 8,
|12, 8, 12, 6,
|12, 14, 12, 6,
|12, 10, 12, 6,
|12, 12, 12, 6,
|10, 8, 10, 4,
|10, 12, 10, 6,
|10, 10, 10, 6,
|12, 10, 12, 6,
|10, 2, 10, 4,
|10, 6, 10, 6,
|10, 8, 10, 6,
|12, 8, 12, 6|];
